\ This file has been generated by DOcplex
\ ENCODING=ISO-8859-1
\Problem name: random_problem.lp

Minimize
 obj: 6 x0 + 10 x1 - 9 x2 + 4 x3 + 4 x4 - 4 x5 - 2 x6 + 2 x7 + 4 x8 - 7 x9
      - 3 x10 + x11 - 6 x13 - 6 x14 + 3 x15 + 4 x16 + 8 x17 - x18 + 4 x19
      - 8 x20 - 3 x21 + 3 x22 + x23 - 5 x24 + 4 x25 + 6 x26 + 6 x27 - 8 x28
      - 5 x29 - 7 x30 + 10 x31 - 9 x32 + 5 x33 + 5 x34 - 8 x35 + 6 x36 + 10 x37
      + 4 x38 - 10 x39 + 10 x40 - 2 x41 + 7 x42 + 4 x43 - 7 x44 + 2 x45 + x46
      + 4 x47 - 9 x48 + x49 - 10 x50 - 4 x51 + 5 x52 - 8 x53 - 3 x54 - 7 x55
      - 3 x56 - 8 x57 + 6 x59 + 6 x60 - 4 x62 + x63 - 2 x64 + 5 x65 + 4 x66
      - 6 x67 + 10 x68 - x69 + 4 x70 - x71 + 7 x72 - 10 x73 + 10 x74 + 7 x75
      - 6 x76 + 4 x77 + 4 x78 + 7 x79 + 2 x80 + 6 x81 + 3 x82 + 4 x83 - 2 x84
      - 8 x85 + 10 x86 + 5 x87 - 6 x88 + 9 x89 - 9 x90 - 4 x91 - 3 x92 + 4 x93
      - 8 x94 - 6 x95 - 6 x96 - 2 x97 + 5 x98 - 5 x99 + 5 x100 + 10 x101
      - 10 x102 + 4 x103 + 4 x104 - 5 x105 + 2 x106 + 2 x107 + 3 x108 + 6 x109
      - 3 x110 + 9 x111 + 6 x112 + 4 x113 - 8 x114 - 7 x115 - 9 x116 + x117
      + 8 x118 + 7 x119 - 8 x120 - 3 x121 - 2 x122 - 3 x123 - 5 x124 + 7 x125
      + 10 x126 - 7 x127 + 5 x128 - 3 x129 + 8 x130 + 6 x131 + x132 + 7 x133
      - 8 x134 - 3 x135 + 4 x136 + 9 x137 - 2 x138 + 3 x139 + 6 x140 + x141
      + 10 x142 + 3 x143 + 10 x144 - 3 x146 - 7 x147 - 2 x148 - 4 x149 + 7 x150
      + 9 x151 - 7 x152 - 9 x153 + 3 x155 - 4 x156 + 9 x157 - x158 - 9 x159
      - x160 + 10 x161 + 10 x162 + 10 x163 - 10 x164 - 7 x165 - 8 x167 - 3 x168
      + 3 x169 - x170 - 4 x171 - 3 x172 - 8 x173 + x174 + 4 x175 - 9 x176
      + 7 x177 + 6 x178 - 6 x179 + 3 x180 - 5 x181 + 5 x182 - 3 x183 - 8 x184
      + 8 x185 - 2 x186 - 7 x187 + 10 x188 - 9 x189 - 3 x190 - 10 x191 + 2 x192
      + 6 x193 + 5 x194 - 7 x195 + x196 - 6 x197 - 5 x198 - 9 x199 + 9 x200
      + 2 x201 - 10 x202 - 9 x203 - 9 x204 + 4 x205 - 5 x206 + x207 + x208
      - 6 x209 + 9 x211 - 3 x212 - 4 x213 + 8 x214 - 8 x215 - x217 + 9 x218
      - 5 x219 - 10 x220 - x221 + 2 x222 - 8 x224 - 7 x225 + 3 x227 - 6 x228
      + 8 x229 - 9 x230 - 2 x231 + 6 x232 - 4 x233 - 5 x234 - 7 x235 + 9 x236
      - 5 x237 + 9 x239 + 5 x240 - 9 x241 + 6 x242 - 7 x243 - 7 x244 - 4 x245
      - x246 - 7 x247 + x248 + 3 x249 + [ - 20 x0*x80 + 20 x0*x101 - 10 x0*x110
      - 2 x0*x165 + 14 x0*x221 + 8 x1*x66 - 20 x1*x124 - 6 x1*x214 + 14 x1*x217
      - 4 x1*x236 + 20 x2*x21 - 2 x2*x46 - 8 x2*x147 + 6 x2*x172 + 4 x2*x203
      - 12 x3*x97 - 10 x3*x115 - 2 x3*x138 - 14 x3*x183 - 8 x3*x227 - 16 x4*x30
      + 2 x4*x62 - 18 x4*x92 + 18 x4*x206 - 14 x4*x228 - 4 x5*x26 + 18 x5*x30
      + 16 x5*x130 + 6 x5*x135 - 20 x5*x217 - 16 x6*x69 + 14 x6*x86 - 4 x6*x96
      + 16 x6*x168 + 20 x6*x240 + 16 x7*x133 + 10 x7*x141 - 18 x7*x229
      + 12 x7*x232 + 20 x7*x235 + 18 x8*x12 - 14 x8*x46 - 18 x8*x164 + 4 x8*x168
      - 20 x8*x223 + 18 x9*x64 + 16 x9*x106 + 10 x9*x137 - 6 x9*x146
      + 18 x9*x189 + 6 x10*x67 - 8 x10*x100 + 10 x10*x190 - 2 x10*x201
      + 10 x10*x247 + 20 x11*x40 + 10 x11*x41 + 4 x11*x42 - 14 x11*x131
      - 12 x11*x156 + 14 x12*x35 - 20 x12*x151 + 2 x12*x217 + 18 x12*x225
      - 20 x13*x22 - 20 x13*x31 - 4 x13*x100 - 16 x13*x117 - 12 x13*x201
      + 18 x14*x56 + 20 x14*x104 + 18 x14*x116 - 10 x14*x202 - 16 x14*x247
      + 8 x15*x55 + 8 x15*x60 - 20 x15*x110 - 4 x15*x115 - 10 x15*x235
      - 18 x16*x116 - 2 x16*x173 - 16 x16*x181 + 8 x16*x183 - 16 x16*x228
      + 20 x17*x127 - 4 x17*x142 - 2 x17*x160 - 6 x17*x214 + 6 x17*x239
      + 2 x18*x28 - 14 x18*x75 + 10 x18*x86 + 12 x18*x227 - 6 x18*x237
      + 20 x19*x117 + 18 x19*x120 - 12 x19*x182 + 10 x19*x207 + 2 x19*x220
      + 2 x20*x26 - 16 x20*x49 - 16 x20*x50 - 12 x20*x204 + 6 x20*x245
      - 18 x21*x83 - 10 x21*x91 - 16 x21*x118 - 4 x21*x186 + 10 x22*x23
      + 20 x22*x181 + 10 x22*x221 - 14 x22*x246 - 2 x23*x46 - 20 x23*x76
      + 2 x23*x95 - 4 x23*x100 - 6 x24*x45 + 4 x24*x70 - 4 x24*x87 + 16 x24*x135
      - 4 x24*x175 - 10 x25*x39 - 16 x25*x52 + 2 x25*x122 + 12 x25*x149
      - 14 x25*x166 + 10 x26*x63 - 16 x26*x87 - 12 x26*x137 + 20 x27*x49
      + 8 x27*x122 - 6 x27*x132 - 10 x27*x133 + 2 x27*x244 + 10 x28*x59
      + 20 x28*x71 - 8 x28*x117 + 2 x28*x179 + 18 x29*x55 + 10 x29*x102
      - 4 x29*x128 - 8 x29*x169 + 8 x29*x229 - 4 x30*x72 - 2 x30*x113
      + 4 x30*x208 + 4 x31*x195 - 14 x31*x200 + 20 x31*x216 - 4 x31*x218
      + 10 x32*x150 + 2 x32*x193 + 6 x32*x207 + 4 x32*x212 - 4 x32*x230
      - 2 x33*x165 + 18 x33*x167 - 4 x33*x186 + 12 x33*x213 + 16 x33*x248
      - 8 x34*x92 - 12 x34*x123 + 4 x34*x144 + 12 x34*x160 + 16 x34*x163
      + 10 x35*x39 + 6 x35*x54 + 14 x35*x79 - 6 x35*x105 + 16 x36*x62
      - 10 x36*x102 + 20 x36*x202 - 10 x36*x210 + 4 x36*x246 - 20 x37*x83
      - 4 x37*x86 + 10 x37*x158 - 14 x37*x166 - 18 x37*x249 + 2 x38*x43
      - 12 x38*x108 + 10 x38*x155 + 14 x38*x159 + 16 x38*x234 - 8 x39*x96
      - 12 x39*x100 - 18 x39*x101 + 8 x40*x192 + 6 x40*x200 + 12 x40*x208
      - 20 x40*x244 + 2 x41*x108 - 20 x41*x170 - 10 x41*x218 - 14 x41*x236
      + 16 x42*x112 - 6 x42*x152 - 14 x42*x191 + 4 x42*x192 - 20 x43*x53
      - 8 x43*x133 - 16 x43*x141 - 8 x43*x151 + 12 x44*x102 - 14 x44*x107
      + 8 x44*x183 + 18 x44*x222 + 20 x44*x239 - 14 x45*x97 - 4 x45*x148
      + 12 x45*x156 - 18 x45*x242 + 12 x46*x153 + 20 x46*x164 + 2 x47*x64
      - 12 x47*x107 - 18 x47*x166 + 4 x47*x169 + 10 x47*x179 + 20 x48*x88
      - 10 x48*x103 + 18 x48*x126 + 16 x48*x208 - 16 x48*x219 - 4 x49*x84
      - 16 x49*x201 - 6 x49*x233 - 20 x50*x71 - 10 x50*x76 + 8 x50*x110
      + 6 x50*x235 + 8 x51*x63 + 10 x51*x121 - 10 x51*x128 - 10 x51*x136
      - 2 x51*x137 + 14 x52*x79 + 16 x52*x136 + 20 x52*x204 + 10 x52*x241
      + 6 x53*x58 - 18 x53*x73 + 2 x53*x111 - 6 x53*x146 + 10 x54*x94
      - 16 x54*x107 + 20 x54*x121 - 18 x54*x180 + 12 x55*x61 - 16 x55*x65
      - 8 x55*x143 - 8 x56*x122 + 14 x56*x129 - 12 x56*x215 + 14 x56*x223
      + 10 x57*x99 + 10 x57*x113 + 4 x57*x143 + 4 x57*x175 - 18 x57*x200
      - 16 x58*x157 - 16 x58*x166 + 10 x58*x176 + 18 x58*x217 - 10 x59*x139
      - 18 x59*x146 - 12 x59*x213 - 8 x59*x230 + 2 x60*x71 + 12 x60*x86
      + 10 x60*x140 - 4 x60*x173 - 16 x61*x109 - 14 x61*x159 - 14 x61*x162
      - 16 x61*x245 - 8 x62*x133 + 4 x62*x206 + 4 x62*x241 + 6 x63*x64
      + 2 x63*x195 + 4 x63*x216 - 10 x64*x95 - 14 x64*x162 + 16 x65*x122
      + 10 x65*x130 - 8 x65*x168 + 8 x65*x175 - 2 x66*x68 - 12 x66*x74
      + 6 x66*x75 - 6 x66*x218 + 6 x67*x80 + 4 x67*x177 + 6 x67*x205
      + 6 x67*x236 - 14 x68*x112 + 8 x68*x124 + 14 x68*x172 + 4 x68*x231
      + 14 x69*x73 + 4 x69*x194 + 20 x69*x211 - 18 x69*x247 + 2 x70*x75
      - 10 x70*x82 + 4 x70*x108 - 2 x70*x223 + 18 x71*x151 - 8 x71*x240
      + 16 x72*x150 + 10 x72*x191 - 14 x72*x240 - 18 x72*x241 + 6 x73*x85
      - 20 x73*x90 + 16 x73*x225 + 12 x74*x174 - 14 x74*x198 + 18 x74*x199
      - 2 x74*x241 - 6 x75*x99 - 18 x75*x132 + 14 x76*x84 - 16 x76*x173
      + 4 x76*x194 - 10 x77*x118 - 16 x77*x161 + 16 x77*x192 + 6 x77*x193
      + 12 x77*x199 - 8 x78*x101 - 4 x78*x111 - 6 x78*x118 - 10 x78*x152
      - 18 x78*x245 + 10 x79*x99 + 6 x79*x129 + 14 x79*x181 - 14 x80*x100
      + 14 x80*x155 - 16 x80*x195 + 12 x81*x122 - 10 x81*x137 + 12 x81*x148
      + 10 x81*x188 + 8 x81*x189 + 18 x82*x94 + 20 x82*x130 + 2 x82*x141
      - 20 x82*x249 + 6 x83*x96 - 2 x83*x209 + 18 x83*x220 + 6 x84*x105
      - 6 x84*x215 + 20 x84*x231 - 20 x85*x138 - 18 x85*x181 - 14 x85*x221
      + 6 x85*x236 + 2 x86*x142 - 8 x87*x139 + 8 x87*x169 + 12 x87*x242
      - 16 x88*x97 + 12 x88*x144 + 14 x88*x205 - 8 x88*x249 - 18 x89*x97
      + 6 x89*x184 + 4 x89*x204 - 2 x89*x205 + 14 x89*x211 + 6 x90*x144
      + 4 x90*x176 + 16 x90*x202 - 20 x90*x248 + 14 x91*x113 - 18 x91*x162
      - 18 x91*x180 + 18 x91*x220 + 8 x92*x185 - 6 x92*x190 + 8 x92*x196
      + 12 x93*x103 - 18 x93*x171 - 6 x93*x188 + 20 x93*x212 - 16 x93*x238
      + 14 x94*x131 + 18 x94*x194 - 8 x94*x216 + 6 x95*x121 - 4 x95*x127
      + 12 x95*x140 + 4 x96*x167 - 8 x96*x247 - 6 x97*x110 - 10 x98*x147
      - 12 x98*x148 + 6 x98*x150 + 8 x98*x215 - 16 x98*x226 - 6 x99*x101
      - 8 x99*x148 + 14 x101*x187 - 12 x102*x234 + 20 x102*x249 + 20 x103*x175
      + 16 x103*x184 + 20 x103*x229 - 4 x104*x126 + 16 x104*x136 - 6 x104*x183
      - 10 x104*x241 + 20 x105*x107 + 2 x105*x170 - 2 x105*x196 - 6 x106*x189
      + 2 x106*x207 - 20 x106*x209 + 12 x106*x214 + 4 x107*x185 + 10 x108*x197
      - 16 x108*x242 - 16 x109*x120 - 18 x109*x184 - 6 x109*x191 + 14 x109*x248
      - 16 x110*x124 + 2 x111*x196 + 12 x111*x203 - 8 x111*x248 + 12 x112*x119
      + 16 x112*x136 + 8 x112*x191 + 4 x113*x124 + 2 x113*x136 - 18 x114*x143
      - 6 x114*x152 + 10 x114*x155 - 12 x114*x168 - 4 x114*x239 - 14 x115*x119
      - 2 x115*x203 + 14 x115*x242 - 16 x116*x165 - 2 x116*x188 + 12 x116*x199
      + 10 x117*x231 - 4 x117*x237 + 10 x118*x127 - 2 x118*x244 - 12 x119*x152
      - 14 x119*x161 - 14 x119*x226 - 4 x120*x131 - 12 x120*x144 + 2 x120*x171
      + 14 x121*x125 - 16 x121*x145 + 10 x123*x159 + 6 x123*x176 - 8 x123*x189
      - 8 x123*x224 - 10 x124*x140 - 20 x125*x128 + 12 x125*x166 + 10 x125*x174
      - 10 x125*x221 + 12 x126*x138 + 16 x126*x142 + 2 x126*x201 + 4 x127*x163
      - 18 x127*x229 - 12 x128*x176 - 18 x128*x211 + 4 x129*x143 + 10 x129*x170
      - 6 x129*x248 - 14 x130*x214 - 10 x130*x225 - 10 x131*x151 + 16 x131*x197
      - 18 x132*x157 + 12 x132*x219 + 8 x132*x227 + 10 x133*x178 - 20 x134*x171
      - 10 x134*x232 + 12 x134*x238 - 14 x134*x239 + 6 x134*x242 + 4 x135*x187
      - 20 x135*x203 + 20 x135*x210 + 14 x137*x212 - 16 x138*x162 - 16 x138*x238
      - 10 x139*x146 - 2 x139*x155 + 2 x139*x193 + 6 x140*x173 - 8 x140*x230
      - 20 x141*x187 - 4 x141*x226 - 2 x142*x174 + 2 x142*x184 + 18 x143*x243
      + 8 x144*x237 + 8 x145*x215 + 18 x145*x221 + 16 x145*x243 + 12 x145*x245
      + 6 x146*x215 - 2 x147*x182 + 18 x147*x222 - 2 x147*x228 - 2 x148*x174
      + 6 x149*x175 + 16 x149*x199 - 16 x149*x211 + 4 x149*x243 - 18 x150*x155
      + 18 x150*x193 - 12 x151*x179 + 16 x152*x224 + 12 x153*x157 + 4 x153*x167
      + 8 x153*x227 + 4 x153*x244 + 6 x154*x185 + 14 x154*x189 + 2 x154*x225
      - 14 x154*x233 - 10 x154*x246 + 12 x156*x229 + 20 x156*x230 - 14 x156*x246
      + 6 x157*x205 - 18 x157*x236 + 4 x158*x160 - 12 x158*x171 - 10 x158*x184
      + 16 x158*x212 + 8 x159*x172 + 20 x159*x191 + 12 x160*x178 - 12 x160*x245
      + 14 x161*x176 - 8 x161*x185 - 10 x161*x188 - 12 x162*x163 - 4 x163*x171
      - 2 x163*x219 - 10 x164*x170 - 8 x164*x173 + 20 x164*x234 + 6 x165*x186
      - 18 x165*x209 + 2 x167*x193 + 20 x167*x216 - 8 x168*x223 + 20 x169*x220
      + 12 x169*x249 - 16 x170*x202 + 6 x172*x207 + 14 x172*x210 + 14 x174*x225
      - 4 x177*x182 + 20 x177*x207 + 2 x177*x232 - 4 x177*x238 + 4 x178*x196
      + 16 x178*x219 - 2 x178*x228 + 8 x179*x198 + 6 x179*x226 + 20 x180*x200
      - 16 x180*x201 + 18 x180*x227 + 16 x181*x208 - 18 x182*x197 + 4 x182*x218
      + 10 x183*x243 - 8 x185*x209 + 6 x186*x224 + 4 x186*x234 + 6 x187*x204
      + 8 x187*x217 + 4 x188*x198 - 8 x190*x200 + 14 x190*x213 - 2 x190*x243
      - 12 x192*x206 - 8 x192*x213 + 18 x194*x202 - 2 x194*x211 - 8 x195*x206
      - 18 x195*x224 - 8 x196*x231 + 20 x197*x212 - 20 x197*x233 - 16 x198*x233
      - 10 x198*x235 - 6 x199*x209 + 20 x203*x223 - 14 x204*x205 + 16 x206*x218
      + 20 x208*x230 - 4 x210*x237 - 8 x210*x240 - 20 x213*x232 + 2 x214*x228
      + 12 x216*x244 + 14 x219*x247 + 8 x220*x224 - 16 x222*x233 - 16 x222*x234
      - 10 x222*x246 - 20 x226*x240 + 20 x231*x232 - 4 x235*x238 - 10 x237*x239
      ]/2
Subject To
 c0: - 2 x1 + 2 x70 - x74 + 2 x147 - 2 x150 = -1
 c1: x5 + x9 - 2 x95 + x109 - x215 = -2
 c2: 2 x21 + 2 x23 + x52 + x88 - 2 x178 = -2
 c3: - 2 x133 + 2 x159 - 2 x160 + x184 - x189 = 0
 c4: 2 x0 - x105 + x119 - x174 + x205 = -2
 c5: 2 x1 + 2 x193 - 2 x199 - x208 - 2 x234 = 1
 c6: - 2 x100 + 2 x158 - x176 + x222 + 2 x248 = -2
 c7: 2 x56 - x82 + x110 + 2 x205 - 2 x242 = 0
 c8: x87 - x122 - x134 - 2 x135 - 2 x143 = -2
 c9: 2 x36 - x119 + 2 x173 + x229 + 2 x230 = 0
 c10: x18 - 2 x75 + 2 x136 - x164 - x209 = -1
 c11: - 2 x73 - 2 x80 + x105 + 2 x189 - 2 x197 = 1
 c12: x20 - 2 x26 - 2 x56 - 2 x77 + x230 = -1
 c13: 2 x51 - 2 x73 - x149 - 2 x180 - x182 = -2
 c14: 2 x46 + x85 + x125 + x214 + 2 x228 = 0
 c15: x18 - x26 - 2 x42 + x87 + 2 x131 = -2
 c16: - x9 + 2 x100 - 2 x121 - x158 + x232 = 0
 c17: - 2 x66 + 2 x83 - 2 x88 + 2 x119 - x146 = -1
 c18: 2 x147 - x153 + 2 x167 - x208 + 2 x233 = 1
 c19: x25 + x50 - 2 x69 + x151 - 2 x191 = 0
 c20: 2 x55 - 2 x125 - x170 - 2 x214 + 2 x215 = 0
 c21: 2 x1 - x35 + x59 + x72 - x233 = -2
 c22: x51 - 2 x167 - 2 x211 - 2 x225 - 2 x242 = -1
 c23: - 2 x9 - 2 x19 - x43 + 2 x218 + x239 = 1
 c24: 2 x80 - 2 x86 + x99 + x126 + x236 = -1

Bounds
 0 <= x0 <= 1
 0 <= x1 <= 1
 0 <= x2 <= 1
 0 <= x3 <= 1
 0 <= x4 <= 1
 0 <= x5 <= 1
 0 <= x6 <= 1
 0 <= x7 <= 1
 0 <= x8 <= 1
 0 <= x9 <= 1
 0 <= x10 <= 1
 0 <= x11 <= 1
 0 <= x12 <= 1
 0 <= x13 <= 1
 0 <= x14 <= 1
 0 <= x15 <= 1
 0 <= x16 <= 1
 0 <= x17 <= 1
 0 <= x18 <= 1
 0 <= x19 <= 1
 0 <= x20 <= 1
 0 <= x21 <= 1
 0 <= x22 <= 1
 0 <= x23 <= 1
 0 <= x24 <= 1
 0 <= x25 <= 1
 0 <= x26 <= 1
 0 <= x27 <= 1
 0 <= x28 <= 1
 0 <= x29 <= 1
 0 <= x30 <= 1
 0 <= x31 <= 1
 0 <= x32 <= 1
 0 <= x33 <= 1
 0 <= x34 <= 1
 0 <= x35 <= 1
 0 <= x36 <= 1
 0 <= x37 <= 1
 0 <= x38 <= 1
 0 <= x39 <= 1
 0 <= x40 <= 1
 0 <= x41 <= 1
 0 <= x42 <= 1
 0 <= x43 <= 1
 0 <= x44 <= 1
 0 <= x45 <= 1
 0 <= x46 <= 1
 0 <= x47 <= 1
 0 <= x48 <= 1
 0 <= x49 <= 1
 0 <= x50 <= 1
 0 <= x51 <= 1
 0 <= x52 <= 1
 0 <= x53 <= 1
 0 <= x54 <= 1
 0 <= x55 <= 1
 0 <= x56 <= 1
 0 <= x57 <= 1
 0 <= x58 <= 1
 0 <= x59 <= 1
 0 <= x60 <= 1
 0 <= x61 <= 1
 0 <= x62 <= 1
 0 <= x63 <= 1
 0 <= x64 <= 1
 0 <= x65 <= 1
 0 <= x66 <= 1
 0 <= x67 <= 1
 0 <= x68 <= 1
 0 <= x69 <= 1
 0 <= x70 <= 1
 0 <= x71 <= 1
 0 <= x72 <= 1
 0 <= x73 <= 1
 0 <= x74 <= 1
 0 <= x75 <= 1
 0 <= x76 <= 1
 0 <= x77 <= 1
 0 <= x78 <= 1
 0 <= x79 <= 1
 0 <= x80 <= 1
 0 <= x81 <= 1
 0 <= x82 <= 1
 0 <= x83 <= 1
 0 <= x84 <= 1
 0 <= x85 <= 1
 0 <= x86 <= 1
 0 <= x87 <= 1
 0 <= x88 <= 1
 0 <= x89 <= 1
 0 <= x90 <= 1
 0 <= x91 <= 1
 0 <= x92 <= 1
 0 <= x93 <= 1
 0 <= x94 <= 1
 0 <= x95 <= 1
 0 <= x96 <= 1
 0 <= x97 <= 1
 0 <= x98 <= 1
 0 <= x99 <= 1
 0 <= x100 <= 1
 0 <= x101 <= 1
 0 <= x102 <= 1
 0 <= x103 <= 1
 0 <= x104 <= 1
 0 <= x105 <= 1
 0 <= x106 <= 1
 0 <= x107 <= 1
 0 <= x108 <= 1
 0 <= x109 <= 1
 0 <= x110 <= 1
 0 <= x111 <= 1
 0 <= x112 <= 1
 0 <= x113 <= 1
 0 <= x114 <= 1
 0 <= x115 <= 1
 0 <= x116 <= 1
 0 <= x117 <= 1
 0 <= x118 <= 1
 0 <= x119 <= 1
 0 <= x120 <= 1
 0 <= x121 <= 1
 0 <= x122 <= 1
 0 <= x123 <= 1
 0 <= x124 <= 1
 0 <= x125 <= 1
 0 <= x126 <= 1
 0 <= x127 <= 1
 0 <= x128 <= 1
 0 <= x129 <= 1
 0 <= x130 <= 1
 0 <= x131 <= 1
 0 <= x132 <= 1
 0 <= x133 <= 1
 0 <= x134 <= 1
 0 <= x135 <= 1
 0 <= x136 <= 1
 0 <= x137 <= 1
 0 <= x138 <= 1
 0 <= x139 <= 1
 0 <= x140 <= 1
 0 <= x141 <= 1
 0 <= x142 <= 1
 0 <= x143 <= 1
 0 <= x144 <= 1
 0 <= x145 <= 1
 0 <= x146 <= 1
 0 <= x147 <= 1
 0 <= x148 <= 1
 0 <= x149 <= 1
 0 <= x150 <= 1
 0 <= x151 <= 1
 0 <= x152 <= 1
 0 <= x153 <= 1
 0 <= x154 <= 1
 0 <= x155 <= 1
 0 <= x156 <= 1
 0 <= x157 <= 1
 0 <= x158 <= 1
 0 <= x159 <= 1
 0 <= x160 <= 1
 0 <= x161 <= 1
 0 <= x162 <= 1
 0 <= x163 <= 1
 0 <= x164 <= 1
 0 <= x165 <= 1
 0 <= x166 <= 1
 0 <= x167 <= 1
 0 <= x168 <= 1
 0 <= x169 <= 1
 0 <= x170 <= 1
 0 <= x171 <= 1
 0 <= x172 <= 1
 0 <= x173 <= 1
 0 <= x174 <= 1
 0 <= x175 <= 1
 0 <= x176 <= 1
 0 <= x177 <= 1
 0 <= x178 <= 1
 0 <= x179 <= 1
 0 <= x180 <= 1
 0 <= x181 <= 1
 0 <= x182 <= 1
 0 <= x183 <= 1
 0 <= x184 <= 1
 0 <= x185 <= 1
 0 <= x186 <= 1
 0 <= x187 <= 1
 0 <= x188 <= 1
 0 <= x189 <= 1
 0 <= x190 <= 1
 0 <= x191 <= 1
 0 <= x192 <= 1
 0 <= x193 <= 1
 0 <= x194 <= 1
 0 <= x195 <= 1
 0 <= x196 <= 1
 0 <= x197 <= 1
 0 <= x198 <= 1
 0 <= x199 <= 1
 0 <= x200 <= 1
 0 <= x201 <= 1
 0 <= x202 <= 1
 0 <= x203 <= 1
 0 <= x204 <= 1
 0 <= x205 <= 1
 0 <= x206 <= 1
 0 <= x207 <= 1
 0 <= x208 <= 1
 0 <= x209 <= 1
 0 <= x210 <= 1
 0 <= x211 <= 1
 0 <= x212 <= 1
 0 <= x213 <= 1
 0 <= x214 <= 1
 0 <= x215 <= 1
 0 <= x216 <= 1
 0 <= x217 <= 1
 0 <= x218 <= 1
 0 <= x219 <= 1
 0 <= x220 <= 1
 0 <= x221 <= 1
 0 <= x222 <= 1
 0 <= x223 <= 1
 0 <= x224 <= 1
 0 <= x225 <= 1
 0 <= x226 <= 1
 0 <= x227 <= 1
 0 <= x228 <= 1
 0 <= x229 <= 1
 0 <= x230 <= 1
 0 <= x231 <= 1
 0 <= x232 <= 1
 0 <= x233 <= 1
 0 <= x234 <= 1
 0 <= x235 <= 1
 0 <= x236 <= 1
 0 <= x237 <= 1
 0 <= x238 <= 1
 0 <= x239 <= 1
 0 <= x240 <= 1
 0 <= x241 <= 1
 0 <= x242 <= 1
 0 <= x243 <= 1
 0 <= x244 <= 1
 0 <= x245 <= 1
 0 <= x246 <= 1
 0 <= x247 <= 1
 0 <= x248 <= 1
 0 <= x249 <= 1

Binaries
 x0 x1 x2 x3 x4 x5 x6 x7 x8 x9 x10 x11 x12 x13 x14 x15 x16 x17 x18 x19 x20 x21
 x22 x23 x24 x25 x26 x27 x28 x29 x30 x31 x32 x33 x34 x35 x36 x37 x38 x39 x40 x41
 x42 x43 x44 x45 x46 x47 x48 x49 x50 x51 x52 x53 x54 x55 x56 x57 x58 x59 x60 x61
 x62 x63 x64 x65 x66 x67 x68 x69 x70 x71 x72 x73 x74 x75 x76 x77 x78 x79 x80 x81
 x82 x83 x84 x85 x86 x87 x88 x89 x90 x91 x92 x93 x94 x95 x96 x97 x98 x99 x100
 x101 x102 x103 x104 x105 x106 x107 x108 x109 x110 x111 x112 x113 x114 x115 x116
 x117 x118 x119 x120 x121 x122 x123 x124 x125 x126 x127 x128 x129 x130 x131 x132
 x133 x134 x135 x136 x137 x138 x139 x140 x141 x142 x143 x144 x145 x146 x147 x148
 x149 x150 x151 x152 x153 x154 x155 x156 x157 x158 x159 x160 x161 x162 x163 x164
 x165 x166 x167 x168 x169 x170 x171 x172 x173 x174 x175 x176 x177 x178 x179 x180
 x181 x182 x183 x184 x185 x186 x187 x188 x189 x190 x191 x192 x193 x194 x195 x196
 x197 x198 x199 x200 x201 x202 x203 x204 x205 x206 x207 x208 x209 x210 x211 x212
 x213 x214 x215 x216 x217 x218 x219 x220 x221 x222 x223 x224 x225 x226 x227 x228
 x229 x230 x231 x232 x233 x234 x235 x236 x237 x238 x239 x240 x241 x242 x243 x244
 x245 x246 x247 x248 x249
End
